(set-logic QF_LRA)
(declare-fun fluent_ready_i2_t0@1 () Bool)
(declare-fun fluent_ready_i0_t1@1 () Bool)
(declare-fun fluent_ready_i1_t1@1 () Bool)
(declare-fun fluent_ready_i2_t1@1 () Bool)
(declare-fun fluent_ready_i0_t2@1 () Bool)
(declare-fun fluent_ready_i1_t2@1 () Bool)
(declare-fun fluent_ready_i2_t2@1 () Bool)
(declare-fun fluent_started_i0_t0@0 () Bool)
(declare-fun fluent_started_i1_t0@0 () Bool)
(declare-fun fluent_started_i2_t0@0 () Bool)
(declare-fun fluent_started_i0_t1@0 () Bool)
(declare-fun fluent_started_i1_t1@0 () Bool)
(declare-fun fluent_started_i2_t1@0 () Bool)
(declare-fun fluent_started_i0_t2@0 () Bool)
(declare-fun act_make_treatment@1 () Bool)
(declare-fun fluent_ready_i0_t0@0 () Bool)
(declare-fun fluent_ready_i1_t0@0 () Bool)
(declare-fun fluent_ready_i2_t0@0 () Bool)
(declare-fun fluent_ready_i0_t1@0 () Bool)
(declare-fun fluent_ready_i1_t1@0 () Bool)
(declare-fun fluent_ready_i2_t1@0 () Bool)
(declare-fun fluent_ready_i0_t2@0 () Bool)
(declare-fun fluent_ready_i1_t2@0 () Bool)
(declare-fun fluent_ready_i2_t2@0 () Bool)
(declare-fun fluent_started_i1_t2@0 () Bool)
(declare-fun fluent_started_i2_t2@0 () Bool)
(declare-fun fluent_busy_@0 () Bool)
(declare-fun fluent_treated_i0_t0@0 () Bool)
(declare-fun fluent_treated_i1_t0@0 () Bool)
(declare-fun fluent_treated_i2_t0@0 () Bool)
(declare-fun fluent_treated_i0_t1@0 () Bool)
(declare-fun fluent_treated_i1_t1@0 () Bool)
(declare-fun fluent_treated_i2_t1@0 () Bool)
(declare-fun fluent_treated_i0_t2@0 () Bool)
(declare-fun fluent_treated_i1_t2@0 () Bool)
(declare-fun fluent_treated_i2_t2@0 () Bool)
(declare-fun fluent_counter_t0@0 () Real)
(declare-fun fluent_counter_t1@0 () Real)
(declare-fun fluent_counter_t2@0 () Real)
(declare-fun dur_make_treatment@1 () Real)
(declare-fun t@1 () Real)
(declare-fun parameter_make_treatment_t@1 () Real)
(declare-fun parameter_make_treatment_i@1 () Real)
(declare-fun __z3_2 () Real)
(declare-fun __z3_3 () Real)
(declare-fun parameter_make_treatment_next@1 () Real)
(declare-fun __z3_4 () Real)
(declare-fun __z3_5 () Real)
(declare-fun fluent_counter_t0@1 () Real)
(declare-fun fluent_counter_t1@1 () Real)
(declare-fun fluent_counter_t2@1 () Real)
(declare-fun fluent_busy_@1 () Bool)
(declare-fun fluent_started_i0_t0@1 () Bool)
(declare-fun fluent_started_i1_t0@1 () Bool)
(declare-fun fluent_started_i2_t0@1 () Bool)
(declare-fun fluent_started_i0_t1@1 () Bool)
(declare-fun fluent_started_i1_t1@1 () Bool)
(declare-fun fluent_started_i2_t1@1 () Bool)
(declare-fun fluent_started_i0_t2@1 () Bool)
(declare-fun fluent_started_i1_t2@1 () Bool)
(declare-fun fluent_started_i2_t2@1 () Bool)
(declare-fun fluent_treated_i0_t0@1 () Bool)
(declare-fun fluent_treated_i1_t0@1 () Bool)
(declare-fun fluent_treated_i2_t0@1 () Bool)
(declare-fun fluent_treated_i0_t1@1 () Bool)
(declare-fun fluent_treated_i1_t1@1 () Bool)
(declare-fun fluent_treated_i2_t1@1 () Bool)
(declare-fun fluent_treated_i0_t2@1 () Bool)
(declare-fun fluent_treated_i1_t2@1 () Bool)
(declare-fun fluent_treated_i2_t2@1 () Bool)
(declare-fun __z3_0 () Real)
(declare-fun __z3_1 () Real)
(declare-fun fluent_ready_i0_t0@1 () Bool)
(declare-fun fluent_ready_i1_t0@1 () Bool)
(assert (let ((.def_0 (= __z3_1 __z3_5))) (let ((.def_1 (= parameter_make_treatment_t@1 5.0))) (let ((.def_2 (or .def_1 .def_0))) (let ((.def_3 (= __z3_1 fluent_counter_t2@1))) (let ((.def_4 (not .def_1))) (let ((.def_5 (or .def_4 .def_3))) (let ((.def_6 (= __z3_5 fluent_counter_t0@1))) (let ((.def_7 (= parameter_make_treatment_t@1 4.0))) (let ((.def_8 (or .def_7 .def_6))) (let ((.def_9 (= __z3_5 fluent_counter_t1@1))) (let ((.def_10 (not .def_7))) (let ((.def_11 (or .def_10 .def_9))) (let ((.def_12 (= __z3_0 __z3_4))) (let ((.def_13 (or .def_1 .def_12))) (let ((.def_14 (= __z3_0 fluent_counter_t2@0))) (let ((.def_15 (or .def_4 .def_14))) (let ((.def_16 (= __z3_4 fluent_counter_t0@0))) (let ((.def_17 (or .def_7 .def_16))) (let ((.def_18 (= __z3_4 fluent_counter_t1@0))) (let ((.def_19 (or .def_10 .def_18))) (let ((.def_20 (= __z3_2 __z3_3))) (let ((.def_21 (= parameter_make_treatment_i@1 2.0))) (let ((.def_22 (or .def_21 .def_20))) (let ((.def_23 (= __z3_2 2.0))) (let ((.def_24 (not .def_21))) (let ((.def_25 (or .def_24 .def_23))) (let ((.def_26 (= __z3_3 0.0))) (let ((.def_27 (= parameter_make_treatment_i@1 1.0))) (let ((.def_28 (or .def_27 .def_26))) (let ((.def_29 (= __z3_3 1.0))) (let ((.def_30 (not .def_27))) (let ((.def_31 (or .def_30 .def_29))) (let ((.def_32 (<= fluent_counter_t0@1 31.0))) (let ((.def_33 (<= 0.0 fluent_counter_t0@1))) (let ((.def_34 (= parameter_make_treatment_next@1 5.0))) (let ((.def_35 (= parameter_make_treatment_next@1 4.0))) (let ((.def_36 (= parameter_make_treatment_next@1 3.0))) (let ((.def_37 (or .def_36 .def_35 .def_34))) (let ((.def_38 (= parameter_make_treatment_i@1 0.0))) (let ((.def_39 (or .def_38 .def_27 .def_21))) (let ((.def_40 (<= fluent_counter_t2@1 31.0))) (let ((.def_41 (<= 0.0 fluent_counter_t2@1))) (let ((.def_42 (= parameter_make_treatment_t@1 3.0))) (let ((.def_43 (or .def_42 .def_7 .def_1))) (let ((.def_44 (<= fluent_counter_t1@1 31.0))) (let ((.def_45 (<= 0.0 fluent_counter_t1@1))) (let ((.def_46 (and act_make_treatment@1 true .def_1))) (let ((.def_47 (= fluent_counter_t2@0 fluent_counter_t2@1))) (let ((.def_48 (not .def_47))) (let ((.def_49 (=> .def_48 .def_46))) (let ((.def_50 (and act_make_treatment@1 true .def_7))) (let ((.def_51 (= fluent_counter_t1@0 fluent_counter_t1@1))) (let ((.def_52 (not .def_51))) (let ((.def_53 (=> .def_52 .def_50))) (let ((.def_54 (and act_make_treatment@1 true .def_42))) (let ((.def_55 (= fluent_counter_t0@0 fluent_counter_t0@1))) (let ((.def_56 (not .def_55))) (let ((.def_57 (=> .def_56 .def_54))) (let ((.def_58 (+ t@1 10.0))) (let ((.def_59 (= t@1 .def_58))) (let ((.def_60 (and act_make_treatment@1 true .def_59 .def_21 .def_34))) (let ((.def_61 (= fluent_ready_i2_t2@0 fluent_ready_i2_t2@1))) (let ((.def_62 (not .def_61))) (let ((.def_63 (=> .def_62 .def_60))) (let ((.def_64 (and act_make_treatment@1 true .def_59 .def_27 .def_34))) (let ((.def_65 (= fluent_ready_i1_t2@0 fluent_ready_i1_t2@1))) (let ((.def_66 (not .def_65))) (let ((.def_67 (=> .def_66 .def_64))) (let ((.def_68 (and act_make_treatment@1 true .def_59 .def_38 .def_34))) (let ((.def_69 (= fluent_ready_i0_t2@0 fluent_ready_i0_t2@1))) (let ((.def_70 (not .def_69))) (let ((.def_71 (=> .def_70 .def_68))) (let ((.def_72 (and act_make_treatment@1 true .def_59 .def_21 .def_35))) (let ((.def_73 (= fluent_ready_i2_t1@0 fluent_ready_i2_t1@1))) (let ((.def_74 (not .def_73))) (let ((.def_75 (=> .def_74 .def_72))) (let ((.def_76 (and act_make_treatment@1 true .def_59 .def_27 .def_35))) (let ((.def_77 (= fluent_ready_i1_t1@0 fluent_ready_i1_t1@1))) (let ((.def_78 (not .def_77))) (let ((.def_79 (=> .def_78 .def_76))) (let ((.def_80 (and act_make_treatment@1 true .def_59 .def_38 .def_35))) (let ((.def_81 (= fluent_ready_i0_t1@0 fluent_ready_i0_t1@1))) (let ((.def_82 (not .def_81))) (let ((.def_83 (=> .def_82 .def_80))) (let ((.def_84 (and act_make_treatment@1 true .def_59 .def_21 .def_36))) (let ((.def_85 (= fluent_ready_i2_t0@0 fluent_ready_i2_t0@1))) (let ((.def_86 (not .def_85))) (let ((.def_87 (=> .def_86 .def_84))) (let ((.def_88 (and act_make_treatment@1 true .def_59 .def_27 .def_36))) (let ((.def_89 (= fluent_ready_i1_t0@0 fluent_ready_i1_t0@1))) (let ((.def_90 (not .def_89))) (let ((.def_91 (=> .def_90 .def_88))) (let ((.def_92 (and act_make_treatment@1 true .def_59 .def_38 .def_36))) (let ((.def_93 (= fluent_ready_i0_t0@0 fluent_ready_i0_t0@1))) (let ((.def_94 (not .def_93))) (let ((.def_95 (=> .def_94 .def_92))) (let ((.def_96 (and act_make_treatment@1 true .def_21 .def_1))) (let ((.def_97 (= fluent_started_i2_t2@0 fluent_started_i2_t2@1))) (let ((.def_98 (not .def_97))) (let ((.def_99 (=> .def_98 .def_96))) (let ((.def_100 (and act_make_treatment@1 true .def_27 .def_1))) (let ((.def_101 (= fluent_started_i1_t2@0 fluent_started_i1_t2@1))) (let ((.def_102 (not .def_101))) (let ((.def_103 (=> .def_102 .def_100))) (let ((.def_104 (and act_make_treatment@1 true .def_38 .def_1))) (let ((.def_105 (= fluent_started_i0_t2@0 fluent_started_i0_t2@1))) (let ((.def_106 (not .def_105))) (let ((.def_107 (=> .def_106 .def_104))) (let ((.def_108 (and act_make_treatment@1 true .def_21 .def_7))) (let ((.def_109 (= fluent_started_i2_t1@0 fluent_started_i2_t1@1))) (let ((.def_110 (not .def_109))) (let ((.def_111 (=> .def_110 .def_108))) (let ((.def_112 (and act_make_treatment@1 true .def_27 .def_7))) (let ((.def_113 (= fluent_started_i1_t1@0 fluent_started_i1_t1@1))) (let ((.def_114 (not .def_113))) (let ((.def_115 (=> .def_114 .def_112))) (let ((.def_116 (and act_make_treatment@1 true .def_38 .def_7))) (let ((.def_117 (= fluent_started_i0_t1@0 fluent_started_i0_t1@1))) (let ((.def_118 (not .def_117))) (let ((.def_119 (=> .def_118 .def_116))) (let ((.def_120 (and act_make_treatment@1 true .def_21 .def_42))) (let ((.def_121 (= fluent_started_i2_t0@0 fluent_started_i2_t0@1))) (let ((.def_122 (not .def_121))) (let ((.def_123 (=> .def_122 .def_120))) (let ((.def_124 (and act_make_treatment@1 true .def_27 .def_42))) (let ((.def_125 (= fluent_started_i1_t0@0 fluent_started_i1_t0@1))) (let ((.def_126 (not .def_125))) (let ((.def_127 (=> .def_126 .def_124))) (let ((.def_128 (and act_make_treatment@1 true .def_38 .def_42))) (let ((.def_129 (= fluent_started_i0_t0@0 fluent_started_i0_t0@1))) (let ((.def_130 (not .def_129))) (let ((.def_131 (=> .def_130 .def_128))) (let ((.def_132 (+ t@1 4.0))) (let ((.def_133 (= t@1 .def_132))) (let ((.def_134 (and act_make_treatment@1 true .def_133 .def_21 .def_1))) (let ((.def_135 (= fluent_treated_i2_t2@0 fluent_treated_i2_t2@1))) (let ((.def_136 (not .def_135))) (let ((.def_137 (=> .def_136 .def_134))) (let ((.def_138 (and act_make_treatment@1 true .def_133 .def_27 .def_1))) (let ((.def_139 (= fluent_treated_i1_t2@0 fluent_treated_i1_t2@1))) (let ((.def_140 (not .def_139))) (let ((.def_141 (=> .def_140 .def_138))) (let ((.def_142 (and act_make_treatment@1 true .def_133 .def_38 .def_1))) (let ((.def_143 (= fluent_treated_i0_t2@0 fluent_treated_i0_t2@1))) (let ((.def_144 (not .def_143))) (let ((.def_145 (=> .def_144 .def_142))) (let ((.def_146 (and act_make_treatment@1 true .def_133 .def_21 .def_7))) (let ((.def_147 (= fluent_treated_i2_t1@0 fluent_treated_i2_t1@1))) (let ((.def_148 (not .def_147))) (let ((.def_149 (=> .def_148 .def_146))) (let ((.def_150 (and act_make_treatment@1 true .def_133 .def_27 .def_7))) (let ((.def_151 (= fluent_treated_i1_t1@0 fluent_treated_i1_t1@1))) (let ((.def_152 (not .def_151))) (let ((.def_153 (=> .def_152 .def_150))) (let ((.def_154 (and act_make_treatment@1 true .def_133 .def_38 .def_7))) (let ((.def_155 (= fluent_treated_i0_t1@0 fluent_treated_i0_t1@1))) (let ((.def_156 (not .def_155))) (let ((.def_157 (=> .def_156 .def_154))) (let ((.def_158 (and act_make_treatment@1 true .def_133 .def_21 .def_42))) (let ((.def_159 (= fluent_treated_i2_t0@0 fluent_treated_i2_t0@1))) (let ((.def_160 (not .def_159))) (let ((.def_161 (=> .def_160 .def_158))) (let ((.def_162 (and act_make_treatment@1 true .def_133 .def_27 .def_42))) (let ((.def_163 (= fluent_treated_i1_t0@0 fluent_treated_i1_t0@1))) (let ((.def_164 (not .def_163))) (let ((.def_165 (=> .def_164 .def_162))) (let ((.def_166 (and act_make_treatment@1 true .def_133 .def_38 .def_42))) (let ((.def_167 (= fluent_treated_i0_t0@0 fluent_treated_i0_t0@1))) (let ((.def_168 (not .def_167))) (let ((.def_169 (=> .def_168 .def_166))) (let ((.def_170 (and act_make_treatment@1 true .def_133))) (let ((.def_171 (and act_make_treatment@1 true))) (let ((.def_172 (and .def_171 .def_170))) (let ((.def_173 (not .def_172))) (let ((.def_174 (or .def_171 .def_170))) (let ((.def_175 (= fluent_busy_@0 fluent_busy_@1))) (let ((.def_176 (not .def_175))) (let ((.def_177 (=> .def_176 .def_174))) (let ((.def_178 (<= 0.0 t@1))) (let ((.def_179 (and .def_27 .def_36))) (let ((.def_180 (or .def_179 fluent_ready_i0_t0@1))) (let ((.def_181 (not .def_179))) (let ((.def_182 (or .def_181 fluent_ready_i1_t0@1))) (let ((.def_183 (and .def_182 .def_180))) (let ((.def_184 (and .def_21 .def_36))) (let ((.def_185 (or .def_184 .def_183))) (let ((.def_186 (not .def_184))) (let ((.def_187 (or .def_186 fluent_ready_i2_t0@1))) (let ((.def_188 (and .def_187 .def_185))) (let ((.def_189 (and .def_38 .def_35))) (let ((.def_190 (or .def_189 .def_188))) (let ((.def_191 (not .def_189))) (let ((.def_192 (or .def_191 fluent_ready_i0_t1@1))) (let ((.def_193 (and .def_192 .def_190))) (let ((.def_194 (and .def_27 .def_35))) (let ((.def_195 (or .def_194 .def_193))) (let ((.def_196 (not .def_194))) (let ((.def_197 (or .def_196 fluent_ready_i1_t1@1))) (let ((.def_198 (and .def_197 .def_195))) (let ((.def_199 (and .def_21 .def_35))) (let ((.def_200 (or .def_199 .def_198))) (let ((.def_201 (not .def_199))) (let ((.def_202 (or .def_201 fluent_ready_i2_t1@1))) (let ((.def_203 (and .def_202 .def_200))) (let ((.def_204 (and .def_38 .def_34))) (let ((.def_205 (or .def_204 .def_203))) (let ((.def_206 (not .def_204))) (let ((.def_207 (or .def_206 fluent_ready_i0_t2@1))) (let ((.def_208 (and .def_207 .def_205))) (let ((.def_209 (and .def_27 .def_34))) (let ((.def_210 (or .def_209 .def_208))) (let ((.def_211 (not .def_209))) (let ((.def_212 (or .def_211 fluent_ready_i1_t2@1))) (let ((.def_213 (and .def_212 .def_210))) (let ((.def_214 (and .def_21 .def_34))) (let ((.def_215 (or .def_214 .def_213))) (let ((.def_216 (not .def_214))) (let ((.def_217 (or .def_216 fluent_ready_i2_t2@1))) (let ((.def_218 (and .def_217 .def_215))) (let ((.def_219 (= .def_218 true))) (let ((.def_220 (=> true .def_219))) (let ((.def_221 (and .def_59 .def_220))) (let ((.def_222 (= fluent_busy_@1 false))) (let ((.def_223 (=> true .def_222))) (let ((.def_224 (and .def_27 .def_42))) (let ((.def_225 (or .def_224 fluent_treated_i0_t0@1))) (let ((.def_226 (not .def_224))) (let ((.def_227 (or .def_226 fluent_treated_i1_t0@1))) (let ((.def_228 (and .def_227 .def_225))) (let ((.def_229 (and .def_21 .def_42))) (let ((.def_230 (or .def_229 .def_228))) (let ((.def_231 (not .def_229))) (let ((.def_232 (or .def_231 fluent_treated_i2_t0@1))) (let ((.def_233 (and .def_232 .def_230))) (let ((.def_234 (and .def_38 .def_7))) (let ((.def_235 (or .def_234 .def_233))) (let ((.def_236 (not .def_234))) (let ((.def_237 (or .def_236 fluent_treated_i0_t1@1))) (let ((.def_238 (and .def_237 .def_235))) (let ((.def_239 (and .def_27 .def_7))) (let ((.def_240 (or .def_239 .def_238))) (let ((.def_241 (not .def_239))) (let ((.def_242 (or .def_241 fluent_treated_i1_t1@1))) (let ((.def_243 (and .def_242 .def_240))) (let ((.def_244 (and .def_21 .def_7))) (let ((.def_245 (or .def_244 .def_243))) (let ((.def_246 (not .def_244))) (let ((.def_247 (or .def_246 fluent_treated_i2_t1@1))) (let ((.def_248 (and .def_247 .def_245))) (let ((.def_249 (and .def_38 .def_1))) (let ((.def_250 (or .def_249 .def_248))) (let ((.def_251 (not .def_249))) (let ((.def_252 (or .def_251 fluent_treated_i0_t2@1))) (let ((.def_253 (and .def_252 .def_250))) (let ((.def_254 (and .def_27 .def_1))) (let ((.def_255 (or .def_254 .def_253))) (let ((.def_256 (not .def_254))) (let ((.def_257 (or .def_256 fluent_treated_i1_t2@1))) (let ((.def_258 (and .def_257 .def_255))) (let ((.def_259 (and .def_21 .def_1))) (let ((.def_260 (or .def_259 .def_258))) (let ((.def_261 (not .def_259))) (let ((.def_262 (or .def_261 fluent_treated_i2_t2@1))) (let ((.def_263 (and .def_262 .def_260))) (let ((.def_264 (= .def_263 true))) (let ((.def_265 (=> true .def_264))) (let ((.def_266 (and .def_133 .def_265 .def_223))) (let ((.def_267 (or .def_224 fluent_started_i0_t0@1))) (let ((.def_268 (or .def_226 fluent_started_i1_t0@1))) (let ((.def_269 (and .def_268 .def_267))) (let ((.def_270 (or .def_229 .def_269))) (let ((.def_271 (or .def_231 fluent_started_i2_t0@1))) (let ((.def_272 (and .def_271 .def_270))) (let ((.def_273 (or .def_234 .def_272))) (let ((.def_274 (or .def_236 fluent_started_i0_t1@1))) (let ((.def_275 (and .def_274 .def_273))) (let ((.def_276 (or .def_239 .def_275))) (let ((.def_277 (or .def_241 fluent_started_i1_t1@1))) (let ((.def_278 (and .def_277 .def_276))) (let ((.def_279 (or .def_244 .def_278))) (let ((.def_280 (or .def_246 fluent_started_i2_t1@1))) (let ((.def_281 (and .def_280 .def_279))) (let ((.def_282 (or .def_249 .def_281))) (let ((.def_283 (or .def_251 fluent_started_i0_t2@1))) (let ((.def_284 (and .def_283 .def_282))) (let ((.def_285 (or .def_254 .def_284))) (let ((.def_286 (or .def_256 fluent_started_i1_t2@1))) (let ((.def_287 (and .def_286 .def_285))) (let ((.def_288 (or .def_259 .def_287))) (let ((.def_289 (or .def_261 fluent_started_i2_t2@1))) (let ((.def_290 (and .def_289 .def_288))) (let ((.def_291 (= .def_290 true))) (let ((.def_292 (=> true .def_291))) (let ((.def_293 (= fluent_busy_@1 true))) (let ((.def_294 (=> true .def_293))) (let ((.def_295 (+ __z3_0 1.0))) (let ((.def_296 (= __z3_1 .def_295))) (let ((.def_297 (=> true .def_296))) (let ((.def_298 (= t@1 t@1))) (let ((.def_299 (and .def_298 .def_297 .def_294 .def_292))) (let ((.def_300 (or .def_179 fluent_started_i0_t0@0))) (let ((.def_301 (or .def_181 fluent_started_i1_t0@0))) (let ((.def_302 (and .def_301 .def_300))) (let ((.def_303 (or .def_184 .def_302))) (let ((.def_304 (or .def_186 fluent_started_i2_t0@0))) (let ((.def_305 (and .def_304 .def_303))) (let ((.def_306 (or .def_189 .def_305))) (let ((.def_307 (or .def_191 fluent_started_i0_t1@0))) (let ((.def_308 (and .def_307 .def_306))) (let ((.def_309 (or .def_194 .def_308))) (let ((.def_310 (or .def_196 fluent_started_i1_t1@0))) (let ((.def_311 (and .def_310 .def_309))) (let ((.def_312 (or .def_199 .def_311))) (let ((.def_313 (or .def_201 fluent_started_i2_t1@0))) (let ((.def_314 (and .def_313 .def_312))) (let ((.def_315 (or .def_204 .def_314))) (let ((.def_316 (or .def_206 fluent_started_i0_t2@0))) (let ((.def_317 (and .def_316 .def_315))) (let ((.def_318 (or .def_209 .def_317))) (let ((.def_319 (or .def_211 fluent_started_i1_t2@0))) (let ((.def_320 (and .def_319 .def_318))) (let ((.def_321 (or .def_214 .def_320))) (let ((.def_322 (or .def_216 fluent_started_i2_t2@0))) (let ((.def_323 (and .def_322 .def_321))) (let ((.def_324 (+ t@1 dur_make_treatment@1))) (let ((.def_325 (<= .def_324 t@1))) (let ((.def_326 (< (- 1.0) .def_324))) (let ((.def_327 (and .def_326 .def_325))) (let ((.def_328 (=> .def_327 .def_323))) (let ((.def_329 (or .def_224 fluent_ready_i0_t0@0))) (let ((.def_330 (or .def_226 fluent_ready_i1_t0@0))) (let ((.def_331 (and .def_330 .def_329))) (let ((.def_332 (or .def_229 .def_331))) (let ((.def_333 (or .def_231 fluent_ready_i2_t0@0))) (let ((.def_334 (and .def_333 .def_332))) (let ((.def_335 (or .def_234 .def_334))) (let ((.def_336 (or .def_236 fluent_ready_i0_t1@0))) (let ((.def_337 (and .def_336 .def_335))) (let ((.def_338 (or .def_239 .def_337))) (let ((.def_339 (or .def_241 fluent_ready_i1_t1@0))) (let ((.def_340 (and .def_339 .def_338))) (let ((.def_341 (or .def_244 .def_340))) (let ((.def_342 (or .def_246 fluent_ready_i2_t1@0))) (let ((.def_343 (and .def_342 .def_341))) (let ((.def_344 (or .def_249 .def_343))) (let ((.def_345 (or .def_251 fluent_ready_i0_t2@0))) (let ((.def_346 (and .def_345 .def_344))) (let ((.def_347 (or .def_254 .def_346))) (let ((.def_348 (or .def_256 fluent_ready_i1_t2@0))) (let ((.def_349 (and .def_348 .def_347))) (let ((.def_350 (or .def_259 .def_349))) (let ((.def_351 (or .def_261 fluent_ready_i2_t2@0))) (let ((.def_352 (and .def_351 .def_350))) (let ((.def_353 (or .def_224 fluent_started_i0_t0@0))) (let ((.def_354 (or .def_226 fluent_started_i1_t0@0))) (let ((.def_355 (and .def_354 .def_353))) (let ((.def_356 (or .def_229 .def_355))) (let ((.def_357 (or .def_231 fluent_started_i2_t0@0))) (let ((.def_358 (and .def_357 .def_356))) (let ((.def_359 (or .def_234 .def_358))) (let ((.def_360 (or .def_236 fluent_started_i0_t1@0))) (let ((.def_361 (and .def_360 .def_359))) (let ((.def_362 (or .def_239 .def_361))) (let ((.def_363 (or .def_241 fluent_started_i1_t1@0))) (let ((.def_364 (and .def_363 .def_362))) (let ((.def_365 (or .def_244 .def_364))) (let ((.def_366 (or .def_246 fluent_started_i2_t1@0))) (let ((.def_367 (and .def_366 .def_365))) (let ((.def_368 (or .def_249 .def_367))) (let ((.def_369 (or .def_251 fluent_started_i0_t2@0))) (let ((.def_370 (and .def_369 .def_368))) (let ((.def_371 (or .def_254 .def_370))) (let ((.def_372 (or .def_256 fluent_started_i1_t2@0))) (let ((.def_373 (and .def_372 .def_371))) (let ((.def_374 (or .def_259 .def_373))) (let ((.def_375 (or .def_261 fluent_started_i2_t2@0))) (let ((.def_376 (and .def_375 .def_374))) (let ((.def_377 (not .def_376))) (let ((.def_378 (or .def_224 fluent_treated_i0_t0@0))) (let ((.def_379 (or .def_226 fluent_treated_i1_t0@0))) (let ((.def_380 (and .def_379 .def_378))) (let ((.def_381 (or .def_229 .def_380))) (let ((.def_382 (or .def_231 fluent_treated_i2_t0@0))) (let ((.def_383 (and .def_382 .def_381))) (let ((.def_384 (or .def_234 .def_383))) (let ((.def_385 (or .def_236 fluent_treated_i0_t1@0))) (let ((.def_386 (and .def_385 .def_384))) (let ((.def_387 (or .def_239 .def_386))) (let ((.def_388 (or .def_241 fluent_treated_i1_t1@0))) (let ((.def_389 (and .def_388 .def_387))) (let ((.def_390 (or .def_244 .def_389))) (let ((.def_391 (or .def_246 fluent_treated_i2_t1@0))) (let ((.def_392 (and .def_391 .def_390))) (let ((.def_393 (or .def_249 .def_392))) (let ((.def_394 (or .def_251 fluent_treated_i0_t2@0))) (let ((.def_395 (and .def_394 .def_393))) (let ((.def_396 (or .def_254 .def_395))) (let ((.def_397 (or .def_256 fluent_treated_i1_t2@0))) (let ((.def_398 (and .def_397 .def_396))) (let ((.def_399 (or .def_259 .def_398))) (let ((.def_400 (or .def_261 fluent_treated_i2_t2@0))) (let ((.def_401 (and .def_400 .def_399))) (let ((.def_402 (not .def_401))) (let ((.def_403 (not fluent_busy_@0))) (let ((.def_404 (and .def_7 .def_36))) (let ((.def_405 (or .def_404 false))) (let ((.def_406 (not .def_404))) (let ((.def_407 (or .def_406 false))) (let ((.def_408 (and .def_407 .def_405))) (let ((.def_409 (and .def_1 .def_36))) (let ((.def_410 (or .def_409 .def_408))) (let ((.def_411 (not .def_409))) (let ((.def_412 (or .def_411 false))) (let ((.def_413 (and .def_412 .def_410))) (let ((.def_414 (and .def_42 .def_35))) (let ((.def_415 (or .def_414 .def_413))) (let ((.def_416 (not .def_414))) (let ((.def_417 (or .def_416 true))) (let ((.def_418 (and .def_417 .def_415))) (let ((.def_419 (and .def_7 .def_35))) (let ((.def_420 (or .def_419 .def_418))) (let ((.def_421 (not .def_419))) (let ((.def_422 (or .def_421 false))) (let ((.def_423 (and .def_422 .def_420))) (let ((.def_424 (and .def_1 .def_35))) (let ((.def_425 (or .def_424 .def_423))) (let ((.def_426 (not .def_424))) (let ((.def_427 (or .def_426 false))) (let ((.def_428 (and .def_427 .def_425))) (let ((.def_429 (and .def_42 .def_34))) (let ((.def_430 (or .def_429 .def_428))) (let ((.def_431 (not .def_429))) (let ((.def_432 (or .def_431 false))) (let ((.def_433 (and .def_432 .def_430))) (let ((.def_434 (and .def_7 .def_34))) (let ((.def_435 (or .def_434 .def_433))) (let ((.def_436 (not .def_434))) (let ((.def_437 (or .def_436 true))) (let ((.def_438 (and .def_437 .def_435))) (let ((.def_439 (and .def_1 .def_34))) (let ((.def_440 (or .def_439 .def_438))) (let ((.def_441 (not .def_439))) (let ((.def_442 (or .def_441 false))) (let ((.def_443 (and .def_442 .def_440))) (let ((.def_444 (= __z3_2 __z3_0))) (let ((.def_445 (and .def_444 .def_443 .def_403 .def_402 .def_377 .def_352))) (let ((.def_446 (<= t@1 t@1))) (let ((.def_447 (< (- 1.0) t@1))) (let ((.def_448 (and .def_447 .def_446))) (let ((.def_449 (=> .def_448 .def_445))) (let ((.def_450 (<= dur_make_treatment@1 15.0))) (let ((.def_451 (<= 15.0 dur_make_treatment@1))) (let ((.def_452 (and .def_451 .def_450))) (let ((.def_453 (and .def_452 .def_325 .def_449 .def_328 .def_299 .def_266 .def_221))) (let ((.def_454 (=> act_make_treatment@1 .def_453))) (let ((.def_455 (<= fluent_counter_t2@0 31.0))) (let ((.def_456 (<= 0.0 fluent_counter_t2@0))) (let ((.def_457 (<= fluent_counter_t1@0 31.0))) (let ((.def_458 (<= 0.0 fluent_counter_t1@0))) (let ((.def_459 (<= fluent_counter_t0@0 31.0))) (let ((.def_460 (<= 0.0 fluent_counter_t0@0))) (let ((.def_461 (= fluent_counter_t2@0 0.0))) (let ((.def_462 (= fluent_counter_t1@0 0.0))) (let ((.def_463 (= fluent_counter_t0@0 0.0))) (let ((.def_464 (= false false))) (let ((.def_465 (= fluent_ready_i2_t2@0 false))) (let ((.def_466 (= fluent_ready_i1_t2@0 false))) (let ((.def_467 (= fluent_ready_i0_t2@0 false))) (let ((.def_468 (= fluent_ready_i2_t1@0 false))) (let ((.def_469 (= fluent_ready_i1_t1@0 false))) (let ((.def_470 (= fluent_ready_i0_t1@0 false))) (let ((.def_471 (= fluent_started_i2_t1@0 false))) (let ((.def_472 (= fluent_started_i1_t1@0 false))) (let ((.def_473 (= fluent_started_i0_t1@0 false))) (let ((.def_474 (= fluent_started_i2_t0@0 false))) (let ((.def_475 (= fluent_started_i1_t0@0 false))) (let ((.def_476 (= fluent_started_i0_t0@0 false))) (let ((.def_477 (= fluent_treated_i2_t2@0 false))) (let ((.def_478 (= fluent_treated_i1_t2@0 false))) (let ((.def_479 (= fluent_treated_i0_t2@0 false))) (let ((.def_480 (= fluent_treated_i2_t1@0 false))) (let ((.def_481 (= fluent_treated_i1_t1@0 false))) (let ((.def_482 (= fluent_treated_i0_t1@0 false))) (let ((.def_483 (= fluent_treated_i2_t0@0 false))) (let ((.def_484 (= fluent_treated_i1_t0@0 false))) (let ((.def_485 (= fluent_treated_i0_t0@0 false))) (let ((.def_486 (= fluent_busy_@0 false))) (let ((.def_487 (= fluent_ready_i2_t0@0 true))) (let ((.def_488 (= fluent_started_i2_t2@0 true))) (let ((.def_489 (= fluent_ready_i1_t0@0 true))) (let ((.def_490 (= fluent_started_i1_t2@0 true))) (let ((.def_491 (= fluent_ready_i0_t0@0 true))) (let ((.def_492 (= fluent_started_i0_t2@0 true))) (let ((.def_493 (= true true))) (let ((.def_494 (= 2.0 2.0))) (let ((.def_495 (= 1.0 1.0))) (let ((.def_496 (= 0.0 0.0))) (let ((.def_497 (and .def_496 .def_495 .def_494 .def_493 .def_493 .def_492 .def_491 .def_490 .def_489 .def_488 .def_487 .def_486 .def_485 .def_484 .def_483 .def_482 .def_481 .def_480 .def_479 .def_478 .def_477 .def_476 .def_475 .def_474 .def_473 .def_472 .def_471 .def_470 .def_469 .def_468 .def_467 .def_466 .def_465 .def_464 .def_464 .def_464 .def_464 .def_464 .def_464 .def_464 .def_463 .def_462 .def_461 .def_460 .def_459 .def_458 .def_457 .def_456 .def_455 .def_454 .def_178 .def_177 .def_173 .def_169 .def_165 .def_161 .def_157 .def_153 .def_149 .def_145 .def_141 .def_137 .def_131 .def_127 .def_123 .def_119 .def_115 .def_111 .def_107 .def_103 .def_99 .def_95 .def_91 .def_87 .def_83 .def_79 .def_75 .def_71 .def_67 .def_63 .def_57 .def_53 .def_49 .def_45 .def_44 .def_43 .def_41 .def_40 .def_39 .def_37 .def_33 .def_32 .def_31 .def_28 .def_25 .def_22 .def_19 .def_17 .def_15 .def_13 .def_11 .def_8 .def_5 .def_2))) .def_497)))))))))))))))))))))))))))))))))))))))))))))))))))))))))))))))))))))))))))))))))))))))))))))))))))))))))))))))))))))))))))))))))))))))))))))))))))))))))))))))))))))))))))))))))))))))))))))))))))))))))))))))))))))))))))))))))))))))))))))))))))))))))))))))))))))))))))))))))))))))))))))))))))))))))))))))))))))))))))))))))))))))))))))))))))))))))))))))))))))))))))))))))))))))))))))))))))))))))))))))))))))))))))))))))))))))))))))))))))))))))))))))))))))))))))))))))))))))))))))))))))))))))))))))))))
(check-sat)
